1 2 2
1 3 7
3 2 10
2 7 5
7 3 11
3 4 16
4 5 4
27 3 9
27 28 10
28 4 6
7 27 9
7 28 4
5 28 6
5 6 6
6 28 4
6 29 4
29 8 3
29 30 4
30 6 5
8 9 5
29 9 4
30 9 5
9 31 2
9 10 3
9 32 4
31 33 2
31 32 3
32 33 4
32 10 2
10 11 6
11 30 6
11 12 6
11 13 5
12 13 6
13 7 8
13 22 9
12 14 6
14 15 14
15 12 15
15 16 5
16 17 4
16 34 6
17 34 5
18 17 6
18 19 7
17 19 10
19 20 3
20 21 7
21 35 1
21 25 4
21 24 4
24 35 3
25 24 2
24 26 1
25 26 1
25 22 5
21 22 5
22 36 1
36 37 2
37 22 4
13 25 8
23 24 5
23 35 7
23 19 12
23 38 9
23 7 10
7 38 7
38 2 25
38 1 7